variable	out_freq equal 100
variable	out_freq2 equal 100

atom_modify	sort 0 0.

neigh_modify    delay 10 every 1
include		in.nacl

timestep	2.0

thermo          ${out_freq}
thermo_style 	custom step temp pe ke etotal press lx ly lz xy xz yz

restart 	${out_freq} restart.${p_id} restart2.${p_id}


